data/benchmarks/bayes/90-12-9-q.cnf
p cnf 672 593
c weights 0.494358 0.5056419999999999 1 1 1 1 1 1 1 1 1 1 1 1 1 1 1 1 1 1 1 1 1 1 1 1 1 1 1 1 1 1 1 1 1 1 1 1 1 1 1 1 1 1 1 1 1 1 1 1 1 1 1 1 1 1 1 1 1 1 1 1 1 1 1 1 1 1 1 1 1 1 1 1 1 1 1 1 1 1 1 1 1 1 1 1 1 1 1 1 1 1 1 1 1 1 1 1 1 1 1 1 1 1 1 1 1 1 1 1 1 1 1 1 1 1 1 1 1 1 1 1 1 1 1 1 1 1 1 1 1 1 1 1 1 1 1 1 1 1 1 1 1 1 1 1 1 1 1 1 1 1 1 1 1 1 1 1 1 1 1 1 1 1 1 1 1 1 1 1 1 1 1 1 1 1 1 1 1 1 1 1 1 1 1 1 1 1 1 1 1 1 1 1 1 1 1 1 1 1 1 1 1 1 1 1 1 1 1 1 1 1 1 1 1 1 1 1 1 1 1 1 1 1 1 1 1 1 1 1 1 1 1 1 1 1 1 1 1 1 1 1 1 1 1 1 1 1 1 1 1 1 1 1 1 1 1 1 1 1 1 1 1 1 1 1 1 1 1 1 1 1 1 1 1 1 1 1 1 1 1 1 1 1 1 1 1 1 0.5 0.5 0.5 0.5 0.5 0.5 0.5 0.5 0.5 0.5 0.5 0.5 0.5 0.5 0.5 0.5 0.5 0.5 0.5 0.5 0.5 0.5 0.5 0.5 0.5 0.5 0.5 0.5 0.5 0.5 0.5 0.5 0.5 0.5 0.5 0.5 0.5 0.5 0.5 0.5 0.48823 0.5117700000000001 0.602302 0.397698 0.5 0.5 0.5 0.5 0.5 0.5 0.5 0.5 0.5 0.5 0.5 0.5 0.5 0.5 0.5 0.5 0.5 0.5 0.5 0.5 0.826398 0.17360200000000003 0.791332 0.20866799999999996 0.60072 0.39927999999999997 0.650619 0.34938100000000005 0.5 0.5 0.5 0.5 0.5 0.5 0.5 0.5 0.5 0.5 0.5 0.5 0.5 0.5 0.5 0.5 0.5 0.5 0.5 0.5 0.5 0.5 0.5 0.5 0.5 0.5 0.5 0.5 0.5 0.5 0.5 0.5 0.5 0.5 0.5 0.5 0.5 0.5 0.5 0.5 0.5 0.5 0.5 0.5 0.5 0.5 0.5 0.5 0.5 0.5 0.5 0.5 0.5 0.5 0.5 0.5 0.660668 0.33933199999999997 0.215536 0.784464 0.0732859 0.9267141 0.051558 0.948442 0.5 0.5 0.5 0.5 0.880046 0.119954 0.625489 0.37451100000000004 0.955161 0.04483899999999996 0.410091 0.589909 0.5 0.5 0.5 0.5 0.5 0.5 0.5 0.5 0.5 0.5 0.5 0.5 0.5 0.5 0.5 0.5 0.5 0.5 0.5 0.5 0.5 0.5 0.5 0.5 0.621678 0.37832200000000005 0.083662 0.916338 0.690318 0.309682 0.620971 0.37902899999999995 0.5 0.5 0.5 0.5 0.5 0.5 0.5 0.5 0.5 0.5 0.5 0.5 0.5 0.5 0.5 0.5 0.5 0.5 0.5 0.5 0.5 0.5 0.5 0.5 0.5 0.5 0.5 0.5 0.5 0.5 0.5 0.5 0.5 0.5 0.5 0.5 0.5 0.5 0.5 0.5 0.5 0.5 0.5 0.5 0.5 0.5 0.5 0.5 0.5 0.5 0.5 0.5 0.5 0.5 0.5 0.5 0.5 0.5 0.5 0.5 0.5 0.5 0.5 0.5 0.5 0.5 0.5 0.5 0.5 0.5 0.5 0.5 0.5 0.5 0.5 0.5 0.5 0.5 0.5 0.5 0.5 0.5 0.5 0.5 0.5 0.5 0.5 0.5 0.5 0.5 0.5 0.5 0.5 0.5 0.5 0.5 0.5 0.5 0.5 0.5 0.616595 0.383405 0.508463 0.491537 0.322799 0.6772009999999999 0.638215 0.361785 0.5 0.5 0.5 0.5 0.5 0.5 0.5 0.5 0.5 0.5 0.5 0.5 0.5 0.5 0.5 0.5 0.5 0.5 0.5 0.5 0.5 0.5 0.5 0.5 0.5 0.5 0.5 0.5 0.5 0.5 0.5 0.5 0.5 0.5 0.5 0.5 0.5 0.5 0.5 0.5 0.5 0.5 0.5 0.5 0.0587034 0.9412966 0.474681 0.525319 0.602547 0.39745299999999995 0.944612 0.05538799999999999 0.5 0.5 0.5 0.5 0.5 0.5 0.5 0.5 0.5 0.5 0.5 0.5 0.5 0.5 0.5 0.5 0.5 0.5 0.5 0.5 0.5 0.5 0.5 0.5 0.5 0.5 0.5 0.5 0.5 0.5 0.5 0.5 0.5 0.5 0.5 0.5 0.5 0.5 0.5 0.5 0.735337 0.264663 0.21211 0.78789 0.573717 0.42628299999999997 0.679949 0.320051 0.5 0.5 0.5 0.5 0.5 0.5 0.5 0.5 0.5 0.5 0.5 0.5 0.5 0.5 0.5 0.5 0.5 0.5 0.5 0.5 0.5 0.5 0.5 0.5 0.5 0.5 0.5 0.5 0.5 0.5 0.5 0.5 0.5 0.5 0.5 0.5 0.5 0.5 0.5 0.5 0.5 0.5 0.5 0.5 0.5 0.5 0.5 0.5 0.5 0.5 0.5 0.5 0.5 0.5 0.5 0.5 0.5 0.5 0.5 0.5 0.5 0.5 0.5 0.5 0.5 0.5 0.5 0.5 0.5 0.5 0.5 0.5 0.5 0.5 0.5 0.5 0.5 0.5 0.5 0.5 0.5 0.5 0.5 0.5 0.5 0.5 0.5 0.5 0.5 0.5 0.5 0.5 0.5 0.5 0.5 0.5 0.5 0.5 0.5 0.5 0.5 0.5 0.5 0.5 0.5 0.5 0.5 0.5 0.5 0.5 0.5 0.5 0.5 0.5 0.5 0.5 0.548436 0.45156399999999997 0.195148 0.804852 0.5 0.5 0.5 0.5 0.5 0.5 0.5 0.5 0.5 0.5 0.5 0.5 0.5 0.5 0.5 0.5 0.5 0.5 0.5 0.5 0.5 0.5 0.5 0.5 0.5 0.5 0.5 0.5 0.5 0.5 0.5 0.5 0.5 0.5 0.5 0.5 0.5 0.5 0.5 0.5 0.791271 0.20872900000000005 0.840254 0.15974600000000005 0.497616 0.5023839999999999 0.98642 0.013580000000000036 0.5 0.5 0.5 0.5 0.5 0.5 0.5 0.5 0.5 0.5 0.5 0.5 0.5 0.5 0.5 0.5 0.5 0.5 0.5 0.5 0.5 0.5 0.5 0.5 0.5 0.5 0.5 0.5 0.5 0.5 0.5 0.5 0.5 0.5 0.5 0.5 0.5 0.5 0.5 0.5 0.5 0.5 0.5 0.5 0.5 0.5 0.5 0.5 0.5 0.5 0.5 0.5 0.5 0.5 0.5 0.5 0.5 0.5 0.5 0.5 0.5 0.5 0.5 0.5 0.5 0.5 0.5 0.5 0.5 0.5 0.5 0.5 0.5 0.5 0.5 0.5 0.5 0.5 0.5 0.5 0.5 0.5 0.5 0.5 0.5 0.5 0.5 0.5 0.5 0.5 0.5 0.5 0.5 0.5 0.5 0.5 0.5 0.5 0.5 0.5 0.5 0.5 0.5 0.5 0.5 0.5 0.5 0.5 0.5 0.5 0.5 0.5 0.5 0.5 0.5 0.5 0.5 0.5 0.5 0.5 0.5 0.5 0.5 0.5 0.501538 0.49846199999999996 0.424851 0.575149 0.626059 0.37394099999999997 0.636073 0.363927 0.5 0.5 0.5 0.5 0.5 0.5 0.5 0.5 0.5 0.5 0.5 0.5 0.5 0.5 0.5 0.5 0.5 0.5 0.5 0.5 0.5 0.5 0.5 0.5 0.5 0.5 0.5 0.5 0.5 0.5 0.5 0.5 0.5 0.5 0.5 0.5 0.5 0.5 0.5 0.5 0.5 0.5 0.5 0.5 0.162375 0.8376250000000001 0.858871 0.14112899999999995 0.559472 0.44052800000000003 0.696277 0.30372299999999997 0.118972 0.881028 0.7069 0.2931 0.312821 0.687179 0.339972 0.6600280000000001 0.5 0.5 0.5 0.5 0.5 0.5 0.5 0.5 0.5 0.5 0.5 0.5 0.5 0.5 0.5 0.5 0.5 0.5 0.5 0.5 0.5 0.5 0.5 0.5 0.5 0.5 0.5 0.5 0.5 0.5 0.5 0.5 0.5 0.5 0.5 0.5 0.5 0.5 0.5 0.5 0.5 0.5 0.5 0.5 0.5 0.5 0.5 0.5 0.5 0.5 0.5 0.5 0.5 0.5 0.5 0.5 0.5 0.5 0.5 0.5 0.5 0.5 0.5 0.5 0.5 0.5 0.5 0.5 0.5 0.5 0.5 0.5 0.5 0.5 0.5 0.5 0.364283 0.635717 0.789163 0.21083700000000005 0.642606 0.357394 0.383163 0.6168370000000001 0.5 0.5 0.5 0.5 0.5 0.5 0.5 0.5 0.5 0.5 0.5 0.5 0.5 0.5 0.5 0.5 0.5 0.5 0.5 0.5 0.5 0.5 0.5 0.5 0.5 0.5 0.5 0.5 0.5 0.5 0.5 0.5 0.5 0.5 0.5 0.5 0.5 0.5 0.5 0.5 0.5 0.5 0.5 0.5 0.5 0.5 0.5 0.5 0.5 0.5 0.5 0.5 0.5 0.5 0.5 0.5 0.5 0.5 0.5 0.5 0.144924 0.855076 0.0945858 0.9054142000000001 0.949137 0.05086299999999999 0.0639958 0.9360042 0.5 0.5 0.5 0.5 0.5 0.5 0.5 0.5 0.927188 0.07281199999999999 0.931563 0.06843699999999997 0.162798 0.837202 0.989558 0.010441999999999951 0.5 0.5 0.5 0.5 0.5 0.5 0.5 0.5 0.5 0.5 0.5 0.5 0.5 0.5 0.5 0.5 0.5 0.5 0.5 0.5 0.5 0.5 0.5 0.5 0.5 0.5 0.5 0.5 0.5 0.5 0.5 0.5 0.5 0.5 0.5 0.5 0.5 0.5 0.5 0.5 0.5 0.5 0.5 0.5 0.5 0.5 0.5 0.5 0.5 0.5 0.5 0.5 0.652712 0.34728800000000004 0.314115 0.6858850000000001 0.0303189 0.9696811 0.132383 0.867617 0.5 0.5 0.5 0.5 0.5 0.5 0.5 0.5 0.5 0.5 0.5 0.5 0.5 0.5 0.5 0.5 0.5 0.5 0.5 0.5 0.5 0.5 0.5 0.5 0.5 0.5 0.5 0.5 0.5 0.5 0.5 0.5 0.5 0.5 0.5 0.5 0.5 0.5 0.5 0.5 0.5 0.5 0.5 0.5 0.5 0.5 0.5 0.5 0.5 0.5 0.5 0.5 0.5 0.5 0.5 0.5 0.5 0.5 0.5 0.5 0.5 0.5 0.5 0.5 0.5 0.5 0.5 0.5 0.5 0.5 0.5 0.5 0.5 0.5 0.5 0.5 0.5 0.5 0.5 0.5
-1 -2 0
1 2 0
-2 -3 0
2 3 0
-3 -4 0
3 4 0
-4 5 0
4 -5 0
-5 6 0
5 -6 0
-6 7 0
6 -7 0
-7 8 0
7 -8 0
-8 9 0
8 -9 0
-9 10 0
9 -10 0
-10 11 0
10 -11 0
-11 -165 12 0
-11 165 -12 0
11 -166 12 0
11 166 -12 0
-1 13 0
1 -13 0
-13 -2 -14 0
-13 2 -14 0
13 -2 -14 0
13 2 14 0
-14 -3 15 0
-14 3 15 0
14 -3 -15 0
14 3 15 0
-15 -4 -177 16 0
-15 -4 177 -16 0
-15 4 -178 16 0
-15 4 178 -16 0
15 -4 -179 16 0
15 -4 179 -16 0
15 4 -180 16 0
15 4 180 -16 0
-16 -5 -17 0
-16 5 17 0
16 -5 -17 0
16 5 17 0
-17 -6 18 0
-17 6 -18 0
17 -6 -18 0
17 6 -18 0
-18 -7 -19 0
-18 7 -19 0
18 -7 19 0
18 7 19 0
-19 -8 20 0
-19 8 20 0
19 -8 -20 0
19 8 20 0
-20 -9 21 0
-20 9 -21 0
20 -9 -21 0
20 9 -21 0
-21 -10 22 0
-21 10 -22 0
21 -10 -22 0
21 10 22 0
-22 -11 23 0
-22 11 23 0
22 -11 -23 0
22 11 23 0
-23 -12 -209 24 0
-23 -12 209 -24 0
-23 12 -210 24 0
-23 12 210 -24 0
23 -12 -211 24 0
23 -12 211 -24 0
23 12 -212 24 0
23 12 212 -24 0
-13 25 0
13 -25 0
-25 -14 -215 26 0
-25 -14 215 -26 0
-25 14 -216 26 0
-25 14 216 -26 0
25 -14 -217 26 0
25 -14 217 -26 0
25 14 -218 26 0
25 14 218 -26 0
-26 -15 -27 0
-26 15 27 0
26 -15 27 0
26 15 27 0
-27 -16 28 0
-27 16 -28 0
27 -16 28 0
27 16 -28 0
-28 -17 29 0
-28 17 29 0
28 -17 -29 0
28 17 -29 0
-29 -18 -231 30 0
-29 -18 231 -30 0
-29 18 -232 30 0
-29 18 232 -30 0
29 -18 -233 30 0
29 -18 233 -30 0
29 18 -234 30 0
29 18 234 -30 0
-30 -19 31 0
-30 19 31 0
30 -19 31 0
30 19 -31 0
-31 -20 -32 0
-31 20 32 0
31 -20 32 0
31 20 32 0
-32 -21 33 0
-32 21 -33 0
32 -21 -33 0
32 21 33 0
-33 -22 34 0
-33 22 34 0
33 -22 -34 0
33 22 -34 0
-34 -23 -35 0
-34 23 35 0
34 -23 35 0
34 23 -35 0
-35 -24 36 0
-35 24 36 0
35 -24 -36 0
35 24 36 0
-25 37 0
25 -37 0
-37 -26 38 0
-37 26 -38 0
37 -26 38 0
37 26 -38 0
-38 -27 -39 0
-38 27 39 0
38 -27 -39 0
38 27 39 0
-39 -28 -40 0
-39 28 40 0
39 -28 -40 0
39 28 40 0
-40 -29 41 0
-40 29 -41 0
40 -29 41 0
40 29 41 0
-41 -30 -42 0
-41 30 -42 0
41 -30 42 0
41 30 42 0
-42 -31 43 0
-42 31 43 0
42 -31 43 0
42 31 -43 0
-43 -32 -285 44 0
-43 -32 285 -44 0
-43 32 -286 44 0
-43 32 286 -44 0
43 -32 -287 44 0
43 -32 287 -44 0
43 32 -288 44 0
43 32 288 -44 0
-44 -33 -45 0
-44 33 45 0
44 -33 -45 0
44 33 45 0
-45 -34 -46 0
-45 34 46 0
45 -34 -46 0
45 34 46 0
-46 -35 47 0
-46 35 -47 0
46 -35 47 0
46 35 47 0
-47 -36 48 0
-47 36 48 0
47 -36 -48 0
47 36 -48 0
-37 49 0
37 -49 0
-49 -38 -50 0
-49 38 -50 0
49 -38 50 0
49 38 -50 0
-50 -39 -311 51 0
-50 -39 311 -51 0
-50 39 -312 51 0
-50 39 312 -51 0
50 -39 -313 51 0
50 -39 313 -51 0
50 39 -314 51 0
50 39 314 -51 0
-51 -40 -52 0
-51 40 -52 0
51 -40 52 0
51 40 -52 0
-52 -41 -53 0
-52 41 53 0
52 -41 53 0
52 41 -53 0
-53 -42 -54 0
-53 42 54 0
53 -42 54 0
53 42 54 0
-54 -43 55 0
-54 43 -55 0
54 -43 -55 0
54 43 55 0
-55 -44 -56 0
-55 44 56 0
55 -44 -56 0
55 44 -56 0
-56 -45 -335 57 0
-56 -45 335 -57 0
-56 45 -336 57 0
-56 45 336 -57 0
56 -45 -337 57 0
56 -45 337 -57 0
56 45 -338 57 0
56 45 338 -57 0
-57 -46 -58 0
-57 46 -58 0
57 -46 -58 0
57 46 58 0
-58 -47 -59 0
-58 47 -59 0
58 -47 59 0
58 47 -59 0
-59 -48 60 0
-59 48 60 0
59 -48 -60 0
59 48 -60 0
-49 61 0
49 -61 0
-61 -50 62 0
-61 50 62 0
61 -50 62 0
61 50 -62 0
-62 -51 -63 0
-62 51 -63 0
62 -51 63 0
62 51 -63 0
-63 -52 -64 0
-63 52 64 0
63 -52 64 0
63 52 64 0
-64 -53 -65 0
-64 53 65 0
64 -53 -65 0
64 53 -65 0
-65 -54 -66 0
-65 54 -66 0
65 -54 66 0
65 54 66 0
-66 -55 -67 0
-66 55 67 0
66 -55 67 0
66 55 67 0
-67 -56 68 0
-67 56 -68 0
67 -56 68 0
67 56 -68 0
-68 -57 -69 0
-68 57 69 0
68 -57 69 0
68 57 69 0
-69 -58 -70 0
-69 58 70 0
69 -58 -70 0
69 58 70 0
-70 -59 -71 0
-70 59 71 0
70 -59 -71 0
70 59 -71 0
-71 -60 -72 0
-71 60 72 0
71 -60 -72 0
71 60 72 0
-61 -397 73 0
-61 397 -73 0
61 -398 73 0
61 398 -73 0
-73 -62 -74 0
-73 62 74 0
73 -62 74 0
73 62 -74 0
-74 -63 -75 0
-74 63 -75 0
74 -63 -75 0
74 63 75 0
-75 -64 76 0
-75 64 76 0
75 -64 76 0
75 64 -76 0
-76 -65 77 0
-76 65 77 0
76 -65 77 0
76 65 -77 0
-77 -66 -78 0
-77 66 -78 0
77 -66 -78 0
77 66 78 0
-78 -67 -419 79 0
-78 -67 419 -79 0
-78 67 -420 79 0
-78 67 420 -79 0
78 -67 -421 79 0
78 -67 421 -79 0
78 67 -422 79 0
78 67 422 -79 0
-79 -68 -80 0
-79 68 80 0
79 -68 80 0
79 68 -80 0
-80 -69 81 0
-80 69 -81 0
80 -69 81 0
80 69 81 0
-81 -70 82 0
-81 70 -82 0
81 -70 82 0
81 70 -82 0
-82 -71 -83 0
-82 71 83 0
82 -71 -83 0
82 71 -83 0
-83 -72 -84 0
-83 72 84 0
83 -72 -84 0
83 72 -84 0
-73 85 0
73 -85 0
-85 -74 -86 0
-85 74 86 0
85 -74 -86 0
85 74 -86 0
-86 -75 87 0
-86 75 -87 0
86 -75 87 0
86 75 -87 0
-87 -76 -88 0
-87 76 88 0
87 -76 88 0
87 76 88 0
-88 -77 -89 0
-88 77 -89 0
88 -77 89 0
88 77 -89 0
-89 -78 90 0
-89 78 -90 0
89 -78 90 0
89 78 90 0
-90 -79 -91 0
-90 79 91 0
90 -79 91 0
90 79 91 0
-91 -80 92 0
-91 80 92 0
91 -80 -92 0
91 80 92 0
-92 -81 -93 0
-92 81 -93 0
92 -81 -93 0
92 81 93 0
-93 -82 94 0
-93 82 94 0
93 -82 94 0
93 82 -94 0
-94 -83 -95 0
-94 83 -95 0
94 -83 95 0
94 83 -95 0
-95 -84 -485 96 0
-95 -84 485 -96 0
-95 84 -486 96 0
-95 84 486 -96 0
95 -84 -487 96 0
95 -84 487 -96 0
95 84 -488 96 0
95 84 488 -96 0
-85 -97 0
85 97 0
-97 -86 -98 0
-97 86 98 0
97 -86 98 0
97 86 98 0
-98 -87 -99 0
-98 87 99 0
98 -87 -99 0
98 87 -99 0
-99 -88 100 0
-99 88 100 0
99 -88 -100 0
99 88 100 0
-100 -89 -101 0
-100 89 101 0
100 -89 101 0
100 89 101 0
-101 -90 102 0
-101 90 -102 0
101 -90 102 0
101 90 -102 0
-102 -91 -511 103 0
-102 -91 511 -103 0
-102 91 -512 103 0
-102 91 512 -103 0
102 -91 -513 103 0
102 -91 513 -103 0
102 91 -514 103 0
102 91 514 -103 0
-103 -92 -515 104 0
-103 -92 515 -104 0
-103 92 -516 104 0
-103 92 516 -104 0
103 -92 -517 104 0
103 -92 517 -104 0
103 92 -518 104 0
103 92 518 -104 0
-104 -93 -105 0
-104 93 -105 0
104 -93 105 0
104 93 105 0
-105 -94 106 0
-105 94 -106 0
105 -94 106 0
105 94 106 0
-106 -95 -107 0
-106 95 107 0
106 -95 -107 0
106 95 107 0
-107 -96 -108 0
-107 96 -108 0
107 -96 -108 0
107 96 108 0
-97 109 0
97 -109 0
-109 -98 110 0
-109 98 110 0
109 -98 -110 0
109 98 110 0
-110 -99 111 0
-110 99 -111 0
110 -99 111 0
110 99 111 0
-111 -100 112 0
-111 100 -112 0
111 -100 -112 0
111 100 -112 0
-112 -101 -113 0
-112 101 113 0
112 -101 113 0
112 101 113 0
-113 -102 -114 0
-113 102 -114 0
113 -102 -114 0
113 102 114 0
-114 -103 -557 115 0
-114 -103 557 -115 0
-114 103 -558 115 0
-114 103 558 -115 0
114 -103 -559 115 0
114 -103 559 -115 0
114 103 -560 115 0
114 103 560 -115 0
-115 -104 -116 0
-115 104 116 0
115 -104 -116 0
115 104 -116 0
-116 -105 -117 0
-116 105 117 0
116 -105 -117 0
116 105 117 0
-117 -106 118 0
-117 106 -118 0
117 -106 118 0
117 106 118 0
-118 -107 119 0
-118 107 -119 0
118 -107 119 0
118 107 119 0
-119 -108 -120 0
-119 108 120 0
119 -108 -120 0
119 108 120 0
-109 121 0
109 -121 0
-121 -110 -122 0
-121 110 122 0
121 -110 122 0
121 110 -122 0
-122 -111 123 0
-122 111 123 0
122 -111 -123 0
122 111 123 0
-123 -112 -591 124 0
-123 -112 591 -124 0
-123 112 -592 124 0
-123 112 592 -124 0
123 -112 -593 124 0
123 -112 593 -124 0
123 112 -594 124 0
123 112 594 -124 0
-124 -113 -125 0
-124 113 -125 0
124 -113 -125 0
124 113 125 0
-125 -114 -599 126 0
-125 -114 599 -126 0
-125 114 -600 126 0
-125 114 600 -126 0
125 -114 -601 126 0
125 -114 601 -126 0
125 114 -602 126 0
125 114 602 -126 0
-126 -115 127 0
-126 115 127 0
126 -115 -127 0
126 115 127 0
-127 -116 128 0
-127 116 -128 0
127 -116 -128 0
127 116 128 0
-128 -117 129 0
-128 117 -129 0
128 -117 129 0
128 117 -129 0
-129 -118 -130 0
-129 118 130 0
129 -118 -130 0
129 118 130 0
-130 -119 -131 0
-130 119 131 0
130 -119 131 0
130 119 -131 0
-131 -120 -132 0
-131 120 -132 0
131 -120 132 0
131 120 132 0
-121 -133 0
121 133 0
-133 -122 -629 134 0
-133 -122 629 -134 0
-133 122 -630 134 0
-133 122 630 -134 0
133 -122 -631 134 0
133 -122 631 -134 0
133 122 -632 134 0
133 122 632 -134 0
-134 -123 -135 0
-134 123 135 0
134 -123 135 0
134 123 135 0
-135 -124 -136 0
-135 124 -136 0
135 -124 136 0
135 124 136 0
-136 -125 -137 0
-136 125 137 0
136 -125 -137 0
136 125 137 0
-137 -126 138 0
-137 126 -138 0
137 -126 138 0
137 126 138 0
-138 -127 -139 0
-138 127 -139 0
138 -127 139 0
138 127 -139 0
-139 -128 140 0
-139 128 -140 0
139 -128 -140 0
139 128 140 0
-140 -129 -141 0
-140 129 141 0
140 -129 -141 0
140 129 141 0
-141 -130 142 0
-141 130 142 0
141 -130 -142 0
141 130 142 0
-142 -131 -143 0
-142 131 143 0
142 -131 143 0
142 131 143 0
-143 -132 144 0
-143 132 -144 0
143 -132 -144 0
143 132 -144 0
144 0
