data/benchmarks/bayes/90-12-9-q.gr
p tw 672 573
55 66
67 68
122 632
99 100
88 100
70 82
8 9
40 41
29 41
92 515
100 101
11 23
121 133
41 42
24 209
62 74
73 74
103 511
44 285
133 134
44 56
14 15
3 15
74 75
79 419
106 107
95 107
122 133
15 16
47 48
36 48
107 108
96 108
18 30
128 140
30 233
21 32
80 81
69 81
23 212
12 212
140 141
113 124
102 514
91 514
129 141
10 22
81 82
54 65
78 422
67 422
102 114
103 515
22 23
123 591
43 55
96 485
112 591
114 115
87 98
103 115
133 632
55 56
28 39
76 88
122 631
88 99
126 601
29 40
77 89
2 13
95 488
62 73
84 488
110 122
3 14
51 63
35 46
95 106
18 231
36 47
128 139
30 232
21 22
69 80
23 211
12 211
113 114
102 513
91 513
10 21
54 55
78 421
67 421
39 313
102 113
115 559
44 288
43 54
87 88
133 631
51 314
114 599
28 29
17 29
76 87
88 89
109 121
122 630
126 600
29 30
61 62
50 62
121 122
2 3
62 63
94 95
83 95
95 487
84 487
110 121
3 4
35 36
24 36
43 287
26 216
32 287
95 96
84 96
127 128
116 128
9 20
68 69
57 69
128 129
117 129
30 231
4 179
69 70
42 53
58 70
101 102
90 102
23 210
12 210
50 313
10 11
16 180
31 43
102 103
75 86
91 103
123 135
115 558
39 312
43 44
16 27
32 44
64 76
125 599
135 136
108 119
124 136
5 17
18 234
17 28
56 337
45 337
76 77
65 77
97 109
6 18
57 338
50 61
98 110
82 93
104 517
39 51
23 34
83 94
131 143
115 126
24 35
72 84
56 67
43 286
26 215
32 286
116 127
9 10
114 602
57 68
89 100
4 178
30 41
42 43
90 101
134 135
50 312
31 42
75 76
14 218
123 134
39 311
16 17
64 75
5 16
73 398
49 50
38 50
56 336
45 336
109 110
130 142
50 51
82 83
71 83
142 143
104 516
23 24
12 24
83 84
115 116
15 178
104 116
56 57
45 57
116 117
105 117
57 58
46 58
89 90
78 90
29 234
30 31
19 31
90 91
63 74
79 91
111 123
25 218
31 32
4 15
20 32
52 64
141 142
123 124
112 124
14 217
64 65
53 65
85 97
114 560
103 560
124 592
11 166
5 6
26 38
73 397
38 49
97 98
70 81
86 98
118 130
130 141
27 39
11 22
71 82
119 131
104 515
12 23
60 72
44 55
104 115
15 177
134 632
1 13
122 123
45 56
93 105
96 107
18 29
78 89
126 138
92 518
19 30
129 140
63 64
111 122
4 5
24 212
25 37
103 514
52 63
79 422
103 114
37 38
124 591
11 165
26 37
70 71
59 71
118 129
130 131
77 88
11 12
92 104
44 45
33 45
103 518
125 137
51 62
134 631
123 594
112 594
96 488
66 78
137 138
18 19
7 19
99 111
129 130
40 52
102 512
91 512
111 112
100 112
132 144
24 211
78 420
67 420
73 85
103 513
44 287
103 104
14 26
79 421
133 630
51 313
85 86
106 118
136 137
122 629
47 59
59 70
118 119
107 119
126 599
77 78
80 92
92 103
110 111
95 486
84 486
33 44
81 93
51 52
103 517
125 136
123 593
84 95
96 487
112 593
143 144
66 77
114 126
117 128
55 67
99 110
58 69
23 209
12 209
40 51
102 511
91 511
16 179
132 143
91 102
25 26
24 210
78 419
67 419
115 557
103 512
44 286
32 43
14 25
114 125
79 420
133 629
51 312
124 135
17 18
106 117
18 233
65 76
47 58
6 17
30 234
57 337
98 109
21 33
80 91
113 125
39 50
95 485
84 485
131 142
54 66
13 25
72 83
125 602
43 285
32 285
87 99
114 601
117 118
28 40
120 132
58 59
4 177
126 602
61 73
50 311
16 178
91 92
2 14
94 106
32 33
124 125
26 218
35 47
51 311
127 139
65 66
18 232
56 335
45 335
68 80
6 7
139 140
98 99
57 336
101 113
39 40
131 132
115 560
39 314
125 601
105 116
46 57
114 600
29 233
120 131
79 90
25 217
20 31
16 177
112 123
14 216
94 105
53 64
114 559
103 559
43 288
26 217
32 288
38 39
127 138
86 97
9 21
12 166
68 79
27 38
71 72
4 180
57 335
119 130
42 54
101 112
50 314
60 71
104 105
75 87
13 14
45 46
34 46
93 104
105 106
125 600
16 28
108 120
46 47
78 79
67 79
126 137
56 338
45 338
29 232
49 61
138 139
19 20
8 20
92 517
79 80
25 216
82 94
20 21
52 53
41 53
104 518
112 113
23 35
14 215
15 180
115 127
53 54
74 86
114 558
103 558
56 68
26 27
15 27
86 87
89 101
12 165
27 28
48 60
119 120
30 42
134 630
1 2
22 34
34 45
93 94
61 398
124 594
7 18
67 78
126 127
29 231
8 19
92 516
100 111
25 215
41 52
15 179
74 85
122 134
114 557
103 557
15 26
59 60
107 118
48 59
92 93
63 75
33 34
81 92
4 16
103 516
125 126
134 629
123 592
112 592
96 486
22 33
34 35
66 67
61 397
37 49
7 8
124 593
